Problem:    
Rows:       256
Columns:    89 (72 integer, 72 binary)
Non-zeros:  960
Status:     INTEGER OPTIMAL
Objective:  value = 3.438163 (MINimum)

   No.   Row name        Activity     Lower bound   Upper bound
------ ------------    ------------- ------------- -------------
     1 r.5                   1003.44             0               
     2 r.6                    -999.1       -999.63               
     3 r.7                   3.43816             0               
     4 r.8                    1.4162      -996.094               
     5 r.9                   1003.44             0               
     6 r.10                  -999.47       -999.54               
     7 r.11                  3.43816             0               
     8 r.12                 -995.751      -995.821               
     9 r.13                  1003.44             0               
    10 r.14                 -997.048       -999.48               
    11 r.15                  3.43816             0               
    12 r.16                  2.95206      -994.439               
    13 r.17                  1003.44             0               
    14 r.18                 -998.584      -999.715               
    15 r.19                  3.43816             0               
    16 r.20                    2.432      -996.181               
    17 r.21                  1003.44             0               
    18 r.22                 -998.869      -999.769               
    19 r.23                  3.43816             0               
    20 r.24                   1.4162          -997               
    21 r.25                  1003.44             0               
    22 r.26                  -999.93       -999.93               
    23 r.27                  3.43816             0               
    24 r.28                 0.070098      -997.481               
    25 r.29                  1003.44             0               
    26 r.30                 -997.568      -998.984               
    27 r.31                  3.43816             0               
    28 r.32                  3.43816       -987.98               
    29 r.33                  1003.44             0               
    30 r.34                 -996.562      -999.514               
    31 r.35                  3.43816             0               
    32 r.36                  3.43816      -997.589               
    33 r.37                        1             1             = 
    34 r.38                        1             1             = 
    35 r.39                        1             1             = 
    36 r.40                        1             1             = 
    37 r.41                        1             1             = 
    38 r.42                        1             1             = 
    39 r.43                        1             1             = 
    40 r.44                        1             1             = 
    41 r.45                        2             2               
    42 r.46                       -2         -1001               
    43 r.47                -0.369944       -999.54               
    44 r.48                     1000             2               
    45 r.49                    -1000         -1001               
    46 r.50                  1002.83      -995.821               
    47 r.51                        2             2               
    48 r.52                       -2         -1001               
    49 r.53                 -997.948       -999.48               
    50 r.54                     1000             2               
    51 r.55                    -1000         -1001               
    52 r.56                  2001.54      -994.439               
    53 r.57                        2             2               
    54 r.58                       -2         -1001               
    55 r.59                 -999.484      -999.715               
    56 r.60                     1000             2               
    57 r.61                    -1000         -1001               
    58 r.62                  2001.02      -996.181               
    59 r.63                        2             2               
    60 r.64                       -2         -1001               
    61 r.65                 -999.769      -999.769               
    62 r.66                     1000             2               
    63 r.67                    -1000         -1001               
    64 r.68                     2000          -997               
    65 r.69                  -999.17       -999.63               
    66 r.70                   1.3461      -996.094               
    67 r.71                  -999.17       -999.63               
    68 r.72                   1.3461      -996.094               
    69 r.73                 -998.468      -998.984               
    70 r.74                  2.53812       -987.98               
    71 r.75                 -998.984      -998.984               
    72 r.76                  2.02197       -987.98               
    73 r.77                        2             2               
    74 r.78                       -2         -1001               
    75 r.79                 -997.462      -999.514               
    76 r.80                     1000             2               
    77 r.81                    -1000         -1001               
    78 r.82                  2002.02      -997.589               
    79 r.83                        2             2               
    80 r.84                       -2         -1001               
    81 r.85                 0.369944      0.369944               
    82 r.86                     1000             2               
    83 r.87                    -1000         -1001               
    84 r.88                  2997.17       3.90639               
    85 r.89                        2             2               
    86 r.90                       -2         -1001               
    87 r.91                 -997.578       -999.48               
    88 r.92                     1000             2               
    89 r.93                    -1000         -1001               
    90 r.94                   2998.7      -994.439               
    91 r.95                        2             2               
    92 r.96                       -2         -1001               
    93 r.97                 -999.114      -999.715               
    94 r.98                     1000             2               
    95 r.99                    -1000         -1001               
    96 r.100                 2998.18      -996.181               
    97 r.101                       2             2               
    98 r.102                      -2         -1001               
    99 r.103                -999.399      -999.769               
   100 r.104                    1000             2               
   101 r.105                   -1000         -1001               
   102 r.106                 2997.17          -997               
   103 r.107                 -999.54       -999.54               
   104 r.108                -995.821      -995.821               
   105 r.109                 -999.54       -999.54               
   106 r.110                -995.821      -995.821               
   107 r.111                       2             2               
   108 r.112                      -2         -1001               
   109 r.113                -998.098      -998.984               
   110 r.114                    1000             2               
   111 r.115                   -1000         -1001               
   112 r.116                 2999.19       -987.98               
   113 r.117                -997.092      -999.514               
   114 r.118                 2.90807      -997.589               
   115 r.119               -0.810624      -999.514               
   116 r.120                 999.189      -997.589               
   117 r.121                       2             2               
   118 r.122                      -2         -1001               
   119 r.123                 997.948      0.369944               
   120 r.124                    1000             2               
   121 r.125                   -1000         -1001               
   122 r.126                 1998.46       3.90639               
   123 r.127                       2             2               
   124 r.128                      -2         -1001               
   125 r.129                 997.578          0.46               
   126 r.130                    1000             2               
   127 r.131                   -1000         -1001               
   128 r.132                  1001.3       4.17869               
   129 r.133                -998.464       -999.48               
   130 r.134                 1.53587      -994.439               
   131 r.135                 -999.48       -999.48               
   132 r.136                0.520067      -994.439               
   133 r.137                       2             2               
   134 r.138                      -2         -1001               
   135 r.139                -1.82072      -999.769               
   136 r.140                    1000             2               
   137 r.141                   -1000         -1001               
   138 r.142                 1998.46          -997               
   139 r.143                -997.118       -999.48               
   140 r.144                 2.88197      -994.439               
   141 r.145                -997.118       -999.48               
   142 r.146                 2.88197      -994.439               
   143 r.147                       2             2               
   144 r.148                      -2         -1001               
   145 r.149               -0.520067      -998.984               
   146 r.150                    1000             2               
   147 r.151                   -1000         -1001               
   148 r.152                 2000.49       -987.98               
   149 r.153                -999.514      -999.514               
   150 r.154                  0.4861      -997.589               
   151 r.155                -999.514      -999.514               
   152 r.156                  0.4861      -997.589               
   153 r.157                       2             2               
   154 r.158                      -2         -1001               
   155 r.159                 999.484      0.369944               
   156 r.160                    1000             2               
   157 r.161                   -1000         -1001               
   158 r.162                 1998.98       3.90639               
   159 r.163                       2             2               
   160 r.164                      -2         -1001               
   161 r.165                 999.114          0.46               
   162 r.166                    1000             2               
   163 r.167                   -1000         -1001               
   164 r.168                 1001.82       4.17869               
   165 r.169                       2             2               
   166 r.170                      -2         -1001               
   167 r.171               -0.284854      -999.769               
   168 r.172                    1000             2               
   169 r.173                   -1000         -1001               
   170 r.174                 1998.98          -997               
   171 r.175                -998.654      -999.715               
   172 r.176                  2.3619      -996.181               
   173 r.177                -998.654      -999.715               
   174 r.178                  2.3619      -996.181               
   175 r.179                       2             2               
   176 r.180                      -2         -1001               
   177 r.181                -998.984      -998.984               
   178 r.182                    1000             2               
   179 r.183                   -1000         -1001               
   180 r.184                 2001.01       -987.98               
   181 r.185                -997.978      -999.514               
   182 r.186                 2.02197      -997.589               
   183 r.187                -998.994      -999.514               
   184 r.188                 1.00617      -997.589               
   185 r.189                       2             2               
   186 r.190                      -2         -1001               
   187 r.191                 999.769      0.369944               
   188 r.192                    1000             2               
   189 r.193                   -1000         -1001               
   190 r.194                    2000       3.90639               
   191 r.195                       2             2               
   192 r.196                      -2         -1001               
   193 r.197                 999.399          0.46               
   194 r.198                    1000             2               
   195 r.199                   -1000         -1001               
   196 r.200                 1002.83       4.17869               
   197 r.201                       2             2               
   198 r.202                      -2         -1001               
   199 r.203                 1.82072      0.520067               
   200 r.204                    1000             2               
   201 r.205                   -1000         -1001               
   202 r.206                 2001.54       5.56128               
   203 r.207                       2             2               
   204 r.208                      -2         -1001               
   205 r.209                0.284856      0.284856               
   206 r.210                    1000             2               
   207 r.211                   -1000         -1001               
   208 r.212                 2001.02       3.81934               
   209 r.213                -998.939      -999.769               
   210 r.214                  1.3461          -997               
   211 r.215                -998.939      -999.769               
   212 r.216                  1.3461          -997               
   213 r.217                -998.699      -998.984               
   214 r.218                 2.30682       -987.98               
   215 r.219                -998.984      -998.984               
   216 r.220                 2.02197       -987.98               
   217 r.221                -997.693      -999.514               
   218 r.222                 2.30682      -997.589               
   219 r.223                -997.978      -999.514               
   220 r.224                 2.02197      -997.589               
   221 r.225                       2             2               
   222 r.226                      -2         -1001               
   223 r.227                 998.098          0.46               
   224 r.228                    1000             2               
   225 r.229                   -1000         -1001               
   226 r.230                 1000.81       4.17869               
   227 r.231                       2             2               
   228 r.232                      -2         -1001               
   229 r.233                0.520067      0.520067               
   230 r.234                    1000             2               
   231 r.235                   -1000         -1001               
   232 r.236                 1999.51       5.56128               
   233 r.237                       2             2               
   234 r.238                      -2         -1001               
   235 r.239                 998.984      0.284856               
   236 r.240                    1000             2               
   237 r.241                   -1000         -1001               
   238 r.242                 1998.99       3.81934               
   239 r.243                       2             2               
   240 r.244                      -2         -1001               
   241 r.245                -998.994      -999.514               
   242 r.246                    1000             2               
   243 r.247                   -1000         -1001               
   244 r.248                    2000      -997.589               
   245 r.249                       2             2               
   246 r.250                      -2         -1001               
   247 r.251                 997.462      0.369944               
   248 r.252                    1000             2               
   249 r.253                   -1000         -1001               
   250 r.254                 1997.98       3.90639               
   251 r.255                       2             2               
   252 r.256                      -2         -1001               
   253 r.257                 998.994        1.0158               
   254 r.258                    1000             2               
   255 r.259                   -1000         -1001               
   256 r.260                    2000       12.0204               

   No. Column name       Activity     Lower bound   Upper bound
------ ------------    ------------- ------------- -------------
     1 tt                    3.43816             0               
     2 s_1_1        *              1             0             1 
     3 t_1_1                 2.53812             0               
     4 s_1_7        *              1             0             1 
     5 s_2_1        *              0             0             1 
     6 t_2_1                 2.02197             0               
     7 s_2_7        *              0             0             1 
     8 s_1_2        *              1             0             1 
     9 t_1_2                 2.90807             0               
    10 s_1_8        *              1             0             1 
    11 s_2_2        *              0             0             1 
    12 t_2_2                 999.189             0               
    13 s_2_8        *              0             0             1 
    14 s_1_3        *              1             0             1 
    15 t_1_3                  0.4861             0               
    16 s_2_3        *              0             0             1 
    17 t_2_3                  0.4861             0               
    18 s_1_4        *              1             0             1 
    19 t_1_4                 2.02197             0               
    20 s_2_4        *              0             0             1 
    21 t_2_4                 1.00617             0               
    22 s_1_5        *              1             0             1 
    23 t_1_5                 2.30682             0               
    24 s_2_5        *              0             0             1 
    25 t_2_5                 2.02197             0               
    26 s_1_6        *              1             0             1 
    27 t_1_6                 3.36807             0               
    28 s_2_6        *              0             0             1 
    29 t_2_6                 3.36807             0               
    30 t_1_7                 1.00617             0               
    31 t_2_7                       0             0               
    32 t_1_8                       0             0               
    33 t_2_8                       0             0               
    34 r_1_1_2      *              0             0             1 
    35 u_1_1_2      *              0             0             1 
    36 r_2_1_2      *              1             0             1 
    37 u_2_1_2      *              0             0             1 
    38 r_1_1_3      *              0             0             1 
    39 u_1_1_3      *              1             0             1 
    40 r_2_1_3      *              1             0             1 
    41 u_2_1_3      *              0             0             1 
    42 r_1_1_4      *              0             0             1 
    43 u_1_1_4      *              1             0             1 
    44 r_2_1_4      *              1             0             1 
    45 u_2_1_4      *              0             0             1 
    46 r_1_1_5      *              0             0             1 
    47 u_1_1_5      *              1             0             1 
    48 r_2_1_5      *              1             0             1 
    49 u_2_1_5      *              0             0             1 
    50 r_1_1_8      *              0             0             1 
    51 u_1_1_8      *              1             0             1 
    52 r_2_1_8      *              1             0             1 
    53 u_2_1_8      *              0             0             1 
    54 r_1_2_3      *              0             0             1 
    55 u_1_2_3      *              1             0             1 
    56 r_2_2_3      *              1             0             1 
    57 u_2_2_3      *              0             0             1 
    58 r_1_2_4      *              0             0             1 
    59 u_1_2_4      *              1             0             1 
    60 r_2_2_4      *              1             0             1 
    61 u_2_2_4      *              0             0             1 
    62 r_1_2_5      *              0             0             1 
    63 u_1_2_5      *              1             0             1 
    64 r_2_2_5      *              1             0             1 
    65 u_2_2_5      *              0             0             1 
    66 r_1_2_7      *              0             0             1 
    67 u_1_2_7      *              1             0             1 
    68 r_2_2_7      *              1             0             1 
    69 u_2_2_7      *              0             0             1 
    70 r_1_3_5      *              0             0             1 
    71 u_1_3_5      *              0             0             1 
    72 r_2_3_5      *              1             0             1 
    73 u_2_3_5      *              0             0             1 
    74 r_1_3_7      *              0             0             1 
    75 u_1_3_7      *              0             0             1 
    76 r_2_3_7      *              1             0             1 
    77 u_2_3_7      *              0             0             1 
    78 r_1_4_5      *              0             0             1 
    79 u_1_4_5      *              0             0             1 
    80 r_2_4_5      *              1             0             1 
    81 u_2_4_5      *              0             0             1 
    82 r_1_4_7      *              0             0             1 
    83 u_1_4_7      *              1             0             1 
    84 r_2_4_7      *              1             0             1 
    85 u_2_4_7      *              0             0             1 
    86 r_1_7_8      *              0             0             1 
    87 u_1_7_8      *              1             0             1 
    88 r_2_7_8      *              1             0             1 
    89 u_2_7_8      *              0             0             1 

Integer feasibility conditions:

KKT.PE: max.abs.err = 4.44e-16 on row 167
        max.rel.err = 6.60e-17 on row 167
        High quality

KKT.PB: max.abs.err = 1.67e-16 on row 81
        max.rel.err = 1.22e-16 on row 81
        High quality

End of output
